nServices=10;
nDrivers=10;
nBuses=10;
startTime=[187 60 33 145 176 13 169 152 55 56];
durationTime=[26 24 27 15 27 15 13 18 11 15];
durationDist=[27 52 41 59 24 25 47 25 20 39];
passangers=[7 6 13 7 5 10 22 2 14 13];
capacity=[16 17 21 28 15 29 16 11 25 29];
costTime=[10 7 9 8 10 10 6 6 6 8];
costDist=[3 5 6 6 5 4 5 5 6 6];
maxTime=[38 38 33 27 28 35 57 51 60 40];
costBM=[5 7 8 6 5 7 7 7 5 5];
costEM=[8 8 12 8 10 8 12 8 11 10];
BM=[10 13 14 13 19 11 17 10 13 15];
